p edge 64 1824
e 1 4 6
e 1 6 8
e 1 7 9
e 1 8 10
e 1 10 12
e 1 11 13
e 1 12 14
e 1 13 15
e 1 14 16
e 1 15 17
e 1 16 18
e 1 18 20
e 1 19 21
e 1 20 22
e 1 21 23
e 1 22 24
e 1 23 25
e 1 24 26
e 1 25 27
e 1 26 28
e 1 27 29
e 1 28 30
e 1 29 31
e 1 30 32
e 1 31 33
e 1 32 34
e 1 34 36
e 1 35 37
e 1 36 38
e 1 37 39
e 1 38 40
e 1 39 41
e 1 40 42
e 1 41 43
e 1 42 44
e 1 43 45
e 1 44 46
e 1 45 47
e 1 46 48
e 1 47 49
e 1 48 50
e 1 49 51
e 1 50 52
e 1 51 53
e 1 52 54
e 1 53 55
e 1 54 56
e 1 55 57
e 1 56 58
e 1 57 59
e 1 58 60
e 1 59 61
e 1 60 62
e 1 61 63
e 1 62 64
e 1 63 65
e 1 64 66
e 2 3 6
e 2 5 8
e 2 7 10
e 2 8 11
e 2 9 12
e 2 11 14
e 2 12 15
e 2 13 16
e 2 14 17
e 2 15 18
e 2 16 19
e 2 17 20
e 2 19 22
e 2 20 23
e 2 21 24
e 2 22 25
e 2 23 26
e 2 24 27
e 2 25 28
e 2 26 29
e 2 27 30
e 2 28 31
e 2 29 32
e 2 30 33
e 2 31 34
e 2 32 35
e 2 33 36
e 2 35 38
e 2 36 39
e 2 37 40
e 2 38 41
e 2 39 42
e 2 40 43
e 2 41 44
e 2 42 45
e 2 43 46
e 2 44 47
e 2 45 48
e 2 46 49
e 2 47 50
e 2 48 51
e 2 49 52
e 2 50 53
e 2 51 54
e 2 52 55
e 2 53 56
e 2 54 57
e 2 55 58
e 2 56 59
e 2 57 60
e 2 58 61
e 2 59 62
e 2 60 63
e 2 61 64
e 2 62 65
e 2 63 66
e 2 64 67
e 3 5 9
e 3 6 10
e 3 8 12
e 3 9 13
e 3 10 14
e 3 12 16
e 3 13 17
e 3 14 18
e 3 15 19
e 3 16 20
e 3 17 21
e 3 18 22
e 3 20 24
e 3 21 25
e 3 22 26
e 3 23 27
e 3 24 28
e 3 25 29
e 3 26 30
e 3 27 31
e 3 28 32
e 3 29 33
e 3 30 34
e 3 31 35
e 3 32 36
e 3 33 37
e 3 34 38
e 3 36 40
e 3 37 41
e 3 38 42
e 3 39 43
e 3 40 44
e 3 41 45
e 3 42 46
e 3 43 47
e 3 44 48
e 3 45 49
e 3 46 50
e 3 47 51
e 3 48 52
e 3 49 53
e 3 50 54
e 3 51 55
e 3 52 56
e 3 53 57
e 3 54 58
e 3 55 59
e 3 56 60
e 3 57 61
e 3 58 62
e 3 59 63
e 3 60 64
e 3 61 65
e 3 62 66
e 3 63 67
e 3 64 68
e 4 5 10
e 4 6 11
e 4 7 12
e 4 9 14
e 4 10 15
e 4 11 16
e 4 13 18
e 4 14 19
e 4 15 20
e 4 16 21
e 4 17 22
e 4 18 23
e 4 19 24
e 4 21 26
e 4 22 27
e 4 23 28
e 4 24 29
e 4 25 30
e 4 26 31
e 4 27 32
e 4 28 33
e 4 29 34
e 4 30 35
e 4 31 36
e 4 32 37
e 4 33 38
e 4 34 39
e 4 35 40
e 4 37 42
e 4 38 43
e 4 39 44
e 4 40 45
e 4 41 46
e 4 42 47
e 4 43 48
e 4 44 49
e 4 45 50
e 4 46 51
e 4 47 52
e 4 48 53
e 4 49 54
e 4 50 55
e 4 51 56
e 4 52 57
e 4 53 58
e 4 54 59
e 4 55 60
e 4 56 61
e 4 57 62
e 4 58 63
e 4 59 64
e 4 60 65
e 4 61 66
e 4 62 67
e 4 63 68
e 4 64 69
e 5 8 14
e 5 9 15
e 5 10 16
e 5 11 17
e 5 12 18
e 5 14 20
e 5 15 21
e 5 16 22
e 5 17 23
e 5 18 24
e 5 19 25
e 5 20 26
e 5 22 28
e 5 23 29
e 5 24 30
e 5 25 31
e 5 26 32
e 5 27 33
e 5 28 34
e 5 29 35
e 5 30 36
e 5 31 37
e 5 32 38
e 5 33 39
e 5 34 40
e 5 35 41
e 5 36 42
e 5 38 44
e 5 39 45
e 5 40 46
e 5 41 47
e 5 42 48
e 5 43 49
e 5 44 50
e 5 45 51
e 5 46 52
e 5 47 53
e 5 48 54
e 5 49 55
e 5 50 56
e 5 51 57
e 5 52 58
e 5 53 59
e 5 54 60
e 5 55 61
e 5 56 62
e 5 57 63
e 5 58 64
e 5 59 65
e 5 60 66
e 5 61 67
e 5 62 68
e 5 63 69
e 5 64 70
e 6 7 14
e 6 9 16
e 6 10 17
e 6 11 18
e 6 12 19
e 6 13 20
e 6 15 22
e 6 16 23
e 6 17 24
e 6 18 25
e 6 19 26
e 6 20 27
e 6 21 28
e 6 23 30
e 6 24 31
e 6 25 32
e 6 26 33
e 6 27 34
e 6 28 35
e 6 29 36
e 6 30 37
e 6 31 38
e 6 32 39
e 6 33 40
e 6 34 41
e 6 35 42
e 6 36 43
e 6 37 44
e 6 39 46
e 6 40 47
e 6 41 48
e 6 42 49
e 6 43 50
e 6 44 51
e 6 45 52
e 6 46 53
e 6 47 54
e 6 48 55
e 6 49 56
e 6 50 57
e 6 51 58
e 6 52 59
e 6 53 60
e 6 54 61
e 6 55 62
e 6 56 63
e 6 57 64
e 6 58 65
e 6 59 66
e 6 60 67
e 6 61 68
e 6 62 69
e 6 63 70
e 6 64 71
e 7 9 17
e 7 10 18
e 7 11 19
e 7 12 20
e 7 13 21
e 7 14 22
e 7 16 24
e 7 17 25
e 7 18 26
e 7 19 27
e 7 20 28
e 7 21 29
e 7 22 30
e 7 24 32
e 7 25 33
e 7 26 34
e 7 27 35
e 7 28 36
e 7 29 37
e 7 30 38
e 7 31 39
e 7 32 40
e 7 33 41
e 7 34 42
e 7 35 43
e 7 36 44
e 7 37 45
e 7 38 46
e 7 40 48
e 7 41 49
e 7 42 50
e 7 43 51
e 7 44 52
e 7 45 53
e 7 46 54
e 7 47 55
e 7 48 56
e 7 49 57
e 7 50 58
e 7 51 59
e 7 52 60
e 7 53 61
e 7 54 62
e 7 55 63
e 7 56 64
e 7 57 65
e 7 58 66
e 7 59 67
e 7 60 68
e 7 61 69
e 7 62 70
e 7 63 71
e 7 64 72
e 8 9 18
e 8 10 19
e 8 11 20
e 8 12 21
e 8 13 22
e 8 14 23
e 8 15 24
e 8 17 26
e 8 18 27
e 8 19 28
e 8 20 29
e 8 21 30
e 8 22 31
e 8 23 32
e 8 25 34
e 8 26 35
e 8 27 36
e 8 28 37
e 8 29 38
e 8 30 39
e 8 31 40
e 8 32 41
e 8 33 42
e 8 34 43
e 8 35 44
e 8 36 45
e 8 37 46
e 8 38 47
e 8 39 48
e 8 41 50
e 8 42 51
e 8 43 52
e 8 44 53
e 8 45 54
e 8 46 55
e 8 47 56
e 8 48 57
e 8 49 58
e 8 50 59
e 8 51 60
e 8 52 61
e 8 53 62
e 8 54 63
e 8 55 64
e 8 56 65
e 8 57 66
e 8 58 67
e 8 59 68
e 8 60 69
e 8 61 70
e 8 62 71
e 8 63 72
e 8 64 73
e 9 12 22
e 9 14 24
e 9 15 25
e 9 16 26
e 9 17 27
e 9 18 28
e 9 19 29
e 9 20 30
e 9 21 31
e 9 22 32
e 9 23 33
e 9 24 34
e 9 26 36
e 9 27 37
e 9 28 38
e 9 29 39
e 9 30 40
e 9 31 41
e 9 32 42
e 9 33 43
e 9 34 44
e 9 35 45
e 9 36 46
e 9 37 47
e 9 38 48
e 9 39 49
e 9 40 50
e 9 42 52
e 9 43 53
e 9 44 54
e 9 45 55
e 9 46 56
e 9 47 57
e 9 48 58
e 9 49 59
e 9 50 60
e 9 51 61
e 9 52 62
e 9 53 63
e 9 54 64
e 9 55 65
e 9 56 66
e 9 57 67
e 9 58 68
e 9 59 69
e 9 60 70
e 9 61 71
e 9 62 72
e 9 63 73
e 9 64 74
e 10 11 22
e 10 13 24
e 10 15 26
e 10 16 27
e 10 17 28
e 10 18 29
e 10 19 30
e 10 20 31
e 10 21 32
e 10 22 33
e 10 23 34
e 10 24 35
e 10 25 36
e 10 27 38
e 10 28 39
e 10 29 40
e 10 30 41
e 10 31 42
e 10 32 43
e 10 33 44
e 10 34 45
e 10 35 46
e 10 36 47
e 10 37 48
e 10 38 49
e 10 39 50
e 10 40 51
e 10 41 52
e 10 43 54
e 10 44 55
e 10 45 56
e 10 46 57
e 10 47 58
e 10 48 59
e 10 49 60
e 10 50 61
e 10 51 62
e 10 52 63
e 10 53 64
e 10 54 65
e 10 55 66
e 10 56 67
e 10 57 68
e 10 58 69
e 10 59 70
e 10 60 71
e 10 61 72
e 10 62 73
e 10 63 74
e 10 64 75
e 11 13 25
e 11 14 26
e 11 16 28
e 11 17 29
e 11 18 30
e 11 19 31
e 11 20 32
e 11 21 33
e 11 22 34
e 11 23 35
e 11 24 36
e 11 25 37
e 11 26 38
e 11 28 40
e 11 29 41
e 11 30 42
e 11 31 43
e 11 32 44
e 11 33 45
e 11 34 46
e 11 35 47
e 11 36 48
e 11 37 49
e 11 38 50
e 11 39 51
e 11 40 52
e 11 41 53
e 11 42 54
e 11 44 56
e 11 45 57
e 11 46 58
e 11 47 59
e 11 48 60
e 11 49 61
e 11 50 62
e 11 51 63
e 11 52 64
e 11 53 65
e 11 54 66
e 11 55 67
e 11 56 68
e 11 57 69
e 11 58 70
e 11 59 71
e 11 60 72
e 11 61 73
e 11 62 74
e 11 63 75
e 11 64 76
e 12 13 26
e 12 14 27
e 12 15 28
e 12 17 30
e 12 18 31
e 12 19 32
e 12 20 33
e 12 21 34
e 12 22 35
e 12 23 36
e 12 24 37
e 12 25 38
e 12 26 39
e 12 27 40
e 12 29 42
e 12 30 43
e 12 31 44
e 12 32 45
e 12 33 46
e 12 34 47
e 12 35 48
e 12 36 49
e 12 37 50
e 12 38 51
e 12 39 52
e 12 40 53
e 12 41 54
e 12 42 55
e 12 43 56
e 12 45 58
e 12 46 59
e 12 47 60
e 12 48 61
e 12 49 62
e 12 50 63
e 12 51 64
e 12 52 65
e 12 53 66
e 12 54 67
e 12 55 68
e 12 56 69
e 12 57 70
e 12 58 71
e 12 59 72
e 12 60 73
e 12 61 74
e 12 62 75
e 12 63 76
e 12 64 77
e 13 16 30
e 13 17 31
e 13 18 32
e 13 19 33
e 13 20 34
e 13 21 35
e 13 22 36
e 13 23 37
e 13 24 38
e 13 25 39
e 13 26 40
e 13 27 41
e 13 28 42
e 13 30 44
e 13 31 45
e 13 32 46
e 13 33 47
e 13 34 48
e 13 35 49
e 13 36 50
e 13 37 51
e 13 38 52
e 13 39 53
e 13 40 54
e 13 41 55
e 13 42 56
e 13 43 57
e 13 44 58
e 13 46 60
e 13 47 61
e 13 48 62
e 13 49 63
e 13 50 64
e 13 51 65
e 13 52 66
e 13 53 67
e 13 54 68
e 13 55 69
e 13 56 70
e 13 57 71
e 13 58 72
e 13 59 73
e 13 60 74
e 13 61 75
e 13 62 76
e 13 63 77
e 13 64 78
e 14 15 30
e 14 17 32
e 14 18 33
e 14 19 34
e 14 20 35
e 14 21 36
e 14 22 37
e 14 23 38
e 14 24 39
e 14 25 40
e 14 26 41
e 14 27 42
e 14 28 43
e 14 29 44
e 14 31 46
e 14 32 47
e 14 33 48
e 14 34 49
e 14 35 50
e 14 36 51
e 14 37 52
e 14 38 53
e 14 39 54
e 14 40 55
e 14 41 56
e 14 42 57
e 14 43 58
e 14 44 59
e 14 45 60
e 14 47 62
e 14 48 63
e 14 49 64
e 14 50 65
e 14 51 66
e 14 52 67
e 14 53 68
e 14 54 69
e 14 55 70
e 14 56 71
e 14 57 72
e 14 58 73
e 14 59 74
e 14 60 75
e 14 61 76
e 14 62 77
e 14 63 78
e 14 64 79
e 15 17 33
e 15 18 34
e 15 19 35
e 15 20 36
e 15 21 37
e 15 22 38
e 15 23 39
e 15 24 40
e 15 25 41
e 15 26 42
e 15 27 43
e 15 28 44
e 15 29 45
e 15 30 46
e 15 32 48
e 15 33 49
e 15 34 50
e 15 35 51
e 15 36 52
e 15 37 53
e 15 38 54
e 15 39 55
e 15 40 56
e 15 41 57
e 15 42 58
e 15 43 59
e 15 44 60
e 15 45 61
e 15 46 62
e 15 48 64
e 15 49 65
e 15 50 66
e 15 51 67
e 15 52 68
e 15 53 69
e 15 54 70
e 15 55 71
e 15 56 72
e 15 57 73
e 15 58 74
e 15 59 75
e 15 60 76
e 15 61 77
e 15 62 78
e 15 63 79
e 15 64 80
e 16 17 34
e 16 18 35
e 16 19 36
e 16 20 37
e 16 21 38
e 16 22 39
e 16 23 40
e 16 24 41
e 16 25 42
e 16 26 43
e 16 27 44
e 16 28 45
e 16 29 46
e 16 30 47
e 16 31 48
e 16 33 50
e 16 34 51
e 16 35 52
e 16 36 53
e 16 37 54
e 16 38 55
e 16 39 56
e 16 40 57
e 16 41 58
e 16 42 59
e 16 43 60
e 16 44 61
e 16 45 62
e 16 46 63
e 16 47 64
e 16 49 66
e 16 50 67
e 16 51 68
e 16 52 69
e 16 53 70
e 16 54 71
e 16 55 72
e 16 56 73
e 16 57 74
e 16 58 75
e 16 59 76
e 16 60 77
e 16 61 78
e 16 62 79
e 16 63 80
e 16 64 81
e 17 20 38
e 17 22 40
e 17 23 41
e 17 24 42
e 17 26 44
e 17 27 45
e 17 28 46
e 17 29 47
e 17 30 48
e 17 31 49
e 17 32 50
e 17 33 51
e 17 34 52
e 17 35 53
e 17 36 54
e 17 37 55
e 17 38 56
e 17 39 57
e 17 40 58
e 17 41 59
e 17 42 60
e 17 43 61
e 17 44 62
e 17 45 63
e 17 46 64
e 17 47 65
e 17 48 66
e 17 50 68
e 17 51 69
e 17 52 70
e 17 53 71
e 17 54 72
e 17 55 73
e 17 56 74
e 17 57 75
e 17 58 76
e 17 59 77
e 17 60 78
e 17 61 79
e 17 62 80
e 17 63 81
e 17 64 82
e 18 19 38
e 18 21 40
e 18 23 42
e 18 24 43
e 18 25 44
e 18 27 46
e 18 28 47
e 18 29 48
e 18 30 49
e 18 31 50
e 18 32 51
e 18 33 52
e 18 34 53
e 18 35 54
e 18 36 55
e 18 37 56
e 18 38 57
e 18 39 58
e 18 40 59
e 18 41 60
e 18 42 61
e 18 43 62
e 18 44 63
e 18 45 64
e 18 46 65
e 18 47 66
e 18 48 67
e 18 49 68
e 18 51 70
e 18 52 71
e 18 53 72
e 18 54 73
e 18 55 74
e 18 56 75
e 18 57 76
e 18 58 77
e 18 59 78
e 18 60 79
e 18 61 80
e 18 62 81
e 18 63 82
e 18 64 83
e 19 21 41
e 19 22 42
e 19 24 44
e 19 25 45
e 19 26 46
e 19 28 48
e 19 29 49
e 19 30 50
e 19 31 51
e 19 32 52
e 19 33 53
e 19 34 54
e 19 35 55
e 19 36 56
e 19 37 57
e 19 38 58
e 19 39 59
e 19 40 60
e 19 41 61
e 19 42 62
e 19 43 63
e 19 44 64
e 19 45 65
e 19 46 66
e 19 47 67
e 19 48 68
e 19 49 69
e 19 50 70
e 19 52 72
e 19 53 73
e 19 54 74
e 19 55 75
e 19 56 76
e 19 57 77
e 19 58 78
e 19 59 79
e 19 60 80
e 19 61 81
e 19 62 82
e 19 63 83
e 19 64 84
e 20 21 42
e 20 22 43
e 20 23 44
e 20 25 46
e 20 26 47
e 20 27 48
e 20 29 50
e 20 30 51
e 20 31 52
e 20 32 53
e 20 33 54
e 20 34 55
e 20 35 56
e 20 36 57
e 20 37 58
e 20 38 59
e 20 39 60
e 20 40 61
e 20 41 62
e 20 42 63
e 20 43 64
e 20 44 65
e 20 45 66
e 20 46 67
e 20 47 68
e 20 48 69
e 20 49 70
e 20 50 71
e 20 51 72
e 20 53 74
e 20 54 75
e 20 55 76
e 20 56 77
e 20 57 78
e 20 58 79
e 20 59 80
e 20 60 81
e 20 61 82
e 20 62 83
e 20 63 84
e 20 64 85
e 21 24 46
e 21 25 47
e 21 26 48
e 21 27 49
e 21 28 50
e 21 30 52
e 21 31 53
e 21 32 54
e 21 33 55
e 21 34 56
e 21 35 57
e 21 36 58
e 21 37 59
e 21 38 60
e 21 39 61
e 21 40 62
e 21 41 63
e 21 42 64
e 21 43 65
e 21 44 66
e 21 45 67
e 21 46 68
e 21 47 69
e 21 48 70
e 21 49 71
e 21 50 72
e 21 51 73
e 21 52 74
e 21 54 76
e 21 55 77
e 21 56 78
e 21 57 79
e 21 58 80
e 21 59 81
e 21 60 82
e 21 61 83
e 21 62 84
e 21 63 85
e 21 64 86
e 22 23 46
e 22 25 48
e 22 26 49
e 22 27 50
e 22 28 51
e 22 29 52
e 22 31 54
e 22 32 55
e 22 33 56
e 22 34 57
e 22 35 58
e 22 36 59
e 22 37 60
e 22 38 61
e 22 39 62
e 22 40 63
e 22 41 64
e 22 42 65
e 22 43 66
e 22 44 67
e 22 45 68
e 22 46 69
e 22 47 70
e 22 48 71
e 22 49 72
e 22 50 73
e 22 51 74
e 22 52 75
e 22 53 76
e 22 55 78
e 22 56 79
e 22 57 80
e 22 58 81
e 22 59 82
e 22 60 83
e 22 61 84
e 22 62 85
e 22 63 86
e 22 64 87
e 23 25 49
e 23 26 50
e 23 27 51
e 23 28 52
e 23 29 53
e 23 30 54
e 23 32 56
e 23 33 57
e 23 34 58
e 23 35 59
e 23 36 60
e 23 37 61
e 23 38 62
e 23 39 63
e 23 40 64
e 23 41 65
e 23 42 66
e 23 43 67
e 23 44 68
e 23 45 69
e 23 46 70
e 23 47 71
e 23 48 72
e 23 49 73
e 23 50 74
e 23 51 75
e 23 52 76
e 23 53 77
e 23 54 78
e 23 56 80
e 23 57 81
e 23 58 82
e 23 59 83
e 23 60 84
e 23 61 85
e 23 62 86
e 23 63 87
e 23 64 88
e 24 25 50
e 24 26 51
e 24 27 52
e 24 28 53
e 24 29 54
e 24 30 55
e 24 31 56
e 24 33 58
e 24 34 59
e 24 35 60
e 24 36 61
e 24 37 62
e 24 38 63
e 24 39 64
e 24 40 65
e 24 41 66
e 24 42 67
e 24 43 68
e 24 44 69
e 24 45 70
e 24 46 71
e 24 47 72
e 24 48 73
e 24 49 74
e 24 50 75
e 24 51 76
e 24 52 77
e 24 53 78
e 24 54 79
e 24 55 80
e 24 57 82
e 24 58 83
e 24 59 84
e 24 60 85
e 24 61 86
e 24 62 87
e 24 63 88
e 24 64 89
e 25 28 54
e 25 30 56
e 25 31 57
e 25 32 58
e 25 33 59
e 25 34 60
e 25 35 61
e 25 36 62
e 25 37 63
e 25 38 64
e 25 39 65
e 25 40 66
e 25 41 67
e 25 42 68
e 25 43 69
e 25 44 70
e 25 45 71
e 25 46 72
e 25 47 73
e 25 48 74
e 25 49 75
e 25 50 76
e 25 51 77
e 25 52 78
e 25 53 79
e 25 54 80
e 25 55 81
e 25 56 82
e 25 58 84
e 25 59 85
e 25 60 86
e 25 61 87
e 25 62 88
e 25 63 89
e 25 64 90
e 26 27 54
e 26 29 56
e 26 31 58
e 26 32 59
e 26 33 60
e 26 34 61
e 26 35 62
e 26 36 63
e 26 37 64
e 26 38 65
e 26 39 66
e 26 40 67
e 26 41 68
e 26 42 69
e 26 43 70
e 26 44 71
e 26 45 72
e 26 46 73
e 26 47 74
e 26 48 75
e 26 49 76
e 26 50 77
e 26 51 78
e 26 52 79
e 26 53 80
e 26 54 81
e 26 55 82
e 26 56 83
e 26 57 84
e 26 59 86
e 26 60 87
e 26 61 88
e 26 62 89
e 26 63 90
e 26 64 91
e 27 29 57
e 27 30 58
e 27 32 60
e 27 33 61
e 27 34 62
e 27 35 63
e 27 36 64
e 27 37 65
e 27 38 66
e 27 39 67
e 27 40 68
e 27 41 69
e 27 42 70
e 27 43 71
e 27 44 72
e 27 45 73
e 27 46 74
e 27 47 75
e 27 48 76
e 27 49 77
e 27 50 78
e 27 51 79
e 27 52 80
e 27 53 81
e 27 54 82
e 27 55 83
e 27 56 84
e 27 57 85
e 27 58 86
e 27 60 88
e 27 61 89
e 27 62 90
e 27 63 91
e 27 64 92
e 28 29 58
e 28 30 59
e 28 31 60
e 28 33 62
e 28 34 63
e 28 35 64
e 28 36 65
e 28 37 66
e 28 38 67
e 28 39 68
e 28 40 69
e 28 41 70
e 28 42 71
e 28 43 72
e 28 44 73
e 28 45 74
e 28 46 75
e 28 47 76
e 28 48 77
e 28 49 78
e 28 50 79
e 28 51 80
e 28 52 81
e 28 53 82
e 28 54 83
e 28 55 84
e 28 56 85
e 28 57 86
e 28 58 87
e 28 59 88
e 28 61 90
e 28 62 91
e 28 63 92
e 28 64 93
e 29 32 62
e 29 33 63
e 29 34 64
e 29 35 65
e 29 36 66
e 29 37 67
e 29 38 68
e 29 39 69
e 29 40 70
e 29 41 71
e 29 42 72
e 29 43 73
e 29 44 74
e 29 45 75
e 29 46 76
e 29 47 77
e 29 48 78
e 29 49 79
e 29 50 80
e 29 51 81
e 29 52 82
e 29 53 83
e 29 54 84
e 29 55 85
e 29 56 86
e 29 57 87
e 29 58 88
e 29 59 89
e 29 60 90
e 29 62 92
e 29 63 93
e 29 64 94
e 30 31 62
e 30 33 64
e 30 34 65
e 30 35 66
e 30 36 67
e 30 37 68
e 30 38 69
e 30 39 70
e 30 40 71
e 30 41 72
e 30 42 73
e 30 43 74
e 30 44 75
e 30 45 76
e 30 46 77
e 30 47 78
e 30 48 79
e 30 49 80
e 30 50 81
e 30 51 82
e 30 52 83
e 30 53 84
e 30 54 85
e 30 55 86
e 30 56 87
e 30 57 88
e 30 58 89
e 30 59 90
e 30 60 91
e 30 61 92
e 30 63 94
e 30 64 95
e 31 33 65
e 31 34 66
e 31 35 67
e 31 36 68
e 31 37 69
e 31 38 70
e 31 39 71
e 31 40 72
e 31 41 73
e 31 42 74
e 31 43 75
e 31 44 76
e 31 45 77
e 31 46 78
e 31 47 79
e 31 48 80
e 31 49 81
e 31 50 82
e 31 51 83
e 31 52 84
e 31 53 85
e 31 54 86
e 31 55 87
e 31 56 88
e 31 57 89
e 31 58 90
e 31 59 91
e 31 60 92
e 31 61 93
e 31 62 94
e 31 64 96
e 32 33 66
e 32 34 67
e 32 35 68
e 32 36 69
e 32 37 70
e 32 38 71
e 32 39 72
e 32 40 73
e 32 41 74
e 32 42 75
e 32 43 76
e 32 44 77
e 32 45 78
e 32 46 79
e 32 47 80
e 32 48 81
e 32 49 82
e 32 50 83
e 32 51 84
e 32 52 85
e 32 53 86
e 32 54 87
e 32 55 88
e 32 56 89
e 32 57 90
e 32 58 91
e 32 59 92
e 32 60 93
e 32 61 94
e 32 62 95
e 32 63 96
e 33 36 70
e 33 38 72
e 33 39 73
e 33 40 74
e 33 42 76
e 33 43 77
e 33 44 78
e 33 45 79
e 33 46 80
e 33 47 81
e 33 48 82
e 33 50 84
e 33 51 85
e 33 52 86
e 33 53 87
e 33 54 88
e 33 55 89
e 33 56 90
e 33 57 91
e 33 58 92
e 33 59 93
e 33 60 94
e 33 61 95
e 33 62 96
e 33 63 97
e 33 64 98
e 34 35 70
e 34 37 72
e 34 39 74
e 34 40 75
e 34 41 76
e 34 43 78
e 34 44 79
e 34 45 80
e 34 46 81
e 34 47 82
e 34 48 83
e 34 49 84
e 34 51 86
e 34 52 87
e 34 53 88
e 34 54 89
e 34 55 90
e 34 56 91
e 34 57 92
e 34 58 93
e 34 59 94
e 34 60 95
e 34 61 96
e 34 62 97
e 34 63 98
e 34 64 99
e 35 37 73
e 35 38 74
e 35 40 76
e 35 41 77
e 35 42 78
e 35 44 80
e 35 45 81
e 35 46 82
e 35 47 83
e 35 48 84
e 35 49 85
e 35 50 86
e 35 52 88
e 35 53 89
e 35 54 90
e 35 55 91
e 35 56 92
e 35 57 93
e 35 58 94
e 35 59 95
e 35 60 96
e 35 61 97
e 35 62 98
e 35 63 99
e 35 64 100
e 36 37 74
e 36 38 75
e 36 39 76
e 36 41 78
e 36 42 79
e 36 43 80
e 36 45 82
e 36 46 83
e 36 47 84
e 36 48 85
e 36 49 86
e 36 50 87
e 36 51 88
e 36 53 90
e 36 54 91
e 36 55 92
e 36 56 93
e 36 57 94
e 36 58 95
e 36 59 96
e 36 60 97
e 36 61 98
e 36 62 99
e 36 63 100
e 36 64 101
e 37 40 78
e 37 41 79
e 37 42 80
e 37 43 81
e 37 44 82
e 37 46 84
e 37 47 85
e 37 48 86
e 37 49 87
e 37 50 88
e 37 51 89
e 37 52 90
e 37 54 92
e 37 55 93
e 37 56 94
e 37 57 95
e 37 58 96
e 37 59 97
e 37 60 98
e 37 61 99
e 37 62 100
e 37 63 101
e 37 64 102
e 38 39 78
e 38 41 80
e 38 42 81
e 38 43 82
e 38 44 83
e 38 45 84
e 38 47 86
e 38 48 87
e 38 49 88
e 38 50 89
e 38 51 90
e 38 52 91
e 38 53 92
e 38 55 94
e 38 56 95
e 38 57 96
e 38 58 97
e 38 59 98
e 38 60 99
e 38 61 100
e 38 62 101
e 38 63 102
e 38 64 103
e 39 41 81
e 39 42 82
e 39 43 83
e 39 44 84
e 39 45 85
e 39 46 86
e 39 48 88
e 39 49 89
e 39 50 90
e 39 51 91
e 39 52 92
e 39 53 93
e 39 54 94
e 39 56 96
e 39 57 97
e 39 58 98
e 39 59 99
e 39 60 100
e 39 61 101
e 39 62 102
e 39 63 103
e 39 64 104
e 40 41 82
e 40 42 83
e 40 43 84
e 40 44 85
e 40 45 86
e 40 46 87
e 40 47 88
e 40 49 90
e 40 50 91
e 40 51 92
e 40 52 93
e 40 53 94
e 40 54 95
e 40 55 96
e 40 57 98
e 40 58 99
e 40 59 100
e 40 60 101
e 40 61 102
e 40 62 103
e 40 63 104
e 40 64 105
e 41 44 86
e 41 46 88
e 41 47 89
e 41 48 90
e 41 49 91
e 41 50 92
e 41 51 93
e 41 52 94
e 41 53 95
e 41 54 96
e 41 55 97
e 41 56 98
e 41 58 100
e 41 59 101
e 41 60 102
e 41 61 103
e 41 62 104
e 41 63 105
e 41 64 106
e 42 43 86
e 42 45 88
e 42 47 90
e 42 48 91
e 42 49 92
e 42 50 93
e 42 51 94
e 42 52 95
e 42 53 96
e 42 54 97
e 42 55 98
e 42 56 99
e 42 57 100
e 42 59 102
e 42 60 103
e 42 61 104
e 42 62 105
e 42 63 106
e 42 64 107
e 43 45 89
e 43 46 90
e 43 48 92
e 43 49 93
e 43 50 94
e 43 51 95
e 43 52 96
e 43 53 97
e 43 54 98
e 43 55 99
e 43 56 100
e 43 57 101
e 43 58 102
e 43 60 104
e 43 61 105
e 43 62 106
e 43 63 107
e 43 64 108
e 44 45 90
e 44 46 91
e 44 47 92
e 44 49 94
e 44 50 95
e 44 51 96
e 44 52 97
e 44 53 98
e 44 54 99
e 44 55 100
e 44 56 101
e 44 57 102
e 44 58 103
e 44 59 104
e 44 61 106
e 44 62 107
e 44 63 108
e 44 64 109
e 45 48 94
e 45 49 95
e 45 50 96
e 45 51 97
e 45 52 98
e 45 53 99
e 45 54 100
e 45 55 101
e 45 56 102
e 45 57 103
e 45 58 104
e 45 59 105
e 45 60 106
e 45 62 108
e 45 63 109
e 45 64 110
e 46 47 94
e 46 49 96
e 46 50 97
e 46 51 98
e 46 52 99
e 46 53 100
e 46 54 101
e 46 55 102
e 46 56 103
e 46 57 104
e 46 58 105
e 46 59 106
e 46 60 107
e 46 61 108
e 46 63 110
e 46 64 111
e 47 49 97
e 47 50 98
e 47 51 99
e 47 52 100
e 47 53 101
e 47 54 102
e 47 55 103
e 47 56 104
e 47 57 105
e 47 58 106
e 47 59 107
e 47 60 108
e 47 61 109
e 47 62 110
e 47 64 112
e 48 49 98
e 48 50 99
e 48 51 100
e 48 52 101
e 48 53 102
e 48 54 103
e 48 55 104
e 48 56 105
e 48 57 106
e 48 58 107
e 48 59 108
e 48 60 109
e 48 61 110
e 48 62 111
e 48 63 112
e 49 52 102
e 49 54 104
e 49 55 105
e 49 56 106
e 49 58 108
e 49 59 109
e 49 60 110
e 49 61 111
e 49 62 112
e 49 63 113
e 49 64 114
e 50 51 102
e 50 53 104
e 50 55 106
e 50 56 107
e 50 57 108
e 50 59 110
e 50 60 111
e 50 61 112
e 50 62 113
e 50 63 114
e 50 64 115
e 51 53 105
e 51 54 106
e 51 56 108
e 51 57 109
e 51 58 110
e 51 60 112
e 51 61 113
e 51 62 114
e 51 63 115
e 51 64 116
e 52 53 106
e 52 54 107
e 52 55 108
e 52 57 110
e 52 58 111
e 52 59 112
e 52 61 114
e 52 62 115
e 52 63 116
e 52 64 117
e 53 56 110
e 53 57 111
e 53 58 112
e 53 59 113
e 53 60 114
e 53 62 116
e 53 63 117
e 53 64 118
e 54 55 110
e 54 57 112
e 54 58 113
e 54 59 114
e 54 60 115
e 54 61 116
e 54 63 118
e 54 64 119
e 55 57 113
e 55 58 114
e 55 59 115
e 55 60 116
e 55 61 117
e 55 62 118
e 55 64 120
e 56 57 114
e 56 58 115
e 56 59 116
e 56 60 117
e 56 61 118
e 56 62 119
e 56 63 120
e 57 60 118
e 57 62 120
e 57 63 121
e 57 64 122
e 58 59 118
e 58 61 120
e 58 63 122
e 58 64 123
e 59 61 121
e 59 62 122
e 59 64 124
e 60 61 122
e 60 62 123
e 60 63 124
e 61 64 126
e 62 63 126
n 1 0
n 2 0
n 3 0
n 4 0
n 5 0
n 6 0
n 7 0
n 8 0
n 9 0
n 10 0
n 11 0
n 12 0
n 13 0
n 14 0
n 15 0
n 16 0
n 17 0
n 18 0
n 19 0
n 20 0
n 21 0
n 22 0
n 23 0
n 24 0
n 25 0
n 26 0
n 27 0
n 28 0
n 29 0
n 30 0
n 31 0
n 32 0
n 33 0
n 34 0
n 35 0
n 36 0
n 37 0
n 38 0
n 39 0
n 40 0
n 41 0
n 42 0
n 43 0
n 44 0
n 45 0
n 46 0
n 47 0
n 48 0
n 49 0
n 50 0
n 51 0
n 52 0
n 53 0
n 54 0
n 55 0
n 56 0
n 57 0
n 58 0
n 59 0
n 60 0
n 61 0
n 62 0
n 63 0
n 64 0
